Minimize
  - 102 y_0 - 47 y_1 - 74 y_2 - 8 y_3 - 42 y_4 - 86 y_5 - 96 y_6 - 104 y_7
   - 31 y_8 - 49 y_9 - 47 y_10 - 95 y_11 - 76 y_12 - 30 y_13 - 89 y_14
   - 99 y_15 - 106 y_16 - 109 y_17 - 77 y_19 + 1367 Constant
Subject To
 c_0: y_9 = 1
 c_1_0: y_0 + y_7 + y_11 + y_15 + y_16 >= 1
 c_1_1: y_1 + y_8 + y_10 + y_13 >= 1
 c_1_2: y_2 >= 1
 c_1_3: y_3 + y_18 >= 1
 c_1_4: y_4 >= 1
 c_1_5: y_5 >= 1
 c_1_6: y_6 + y_15 + y_16 >= 1
 c_1_7: y_0 + y_7 + y_11 + y_15 + y_17 >= 1
 c_1_8: y_1 + y_8 + y_13 >= 1
 c_1_9: y_9 >= 1
 c_1_10: y_1 + y_10 + y_13 >= 1
 c_1_11: y_0 + y_7 + y_11 + y_15 >= 1
 c_1_12: y_12 + y_14 + y_19 >= 1
 c_1_13: y_1 + y_8 + y_10 + y_13 >= 1
 c_1_14: y_12 + y_14 + y_19 >= 1
 c_1_15: y_0 + y_6 + y_7 + y_11 + y_15 + y_16 >= 1
 c_1_16: y_0 + y_6 + y_15 + y_16 >= 1
 c_1_17: y_7 + y_17 >= 1
 c_1_18: y_3 + y_18 >= 1
 c_1_19: y_12 + y_14 + y_19 >= 1
Bounds
 Constant = 1
Binaries
 y_0 y_1 y_2 y_3 y_4 y_5 y_6 y_7 y_8 y_9 y_10 y_11 y_12 y_13 y_14 y_15 y_16
 y_17 y_18 y_19
End
